param set_len = 30;
param target_sum = 16665578;
param values := [0] 625806 [1] 1084675 [2] 1093267 [3] 735368 [4] 421404 [5] 946292 [6] 678438 [7] 318052 [8] 1273491 [9] 1072803 [10] 1830072 [11] 2066539 [12] 1567824 [13] 606708 [14] 1844142 [15] 860342 [16] 207401 [17] 1434151 [18] 1152632 [19] 1624859 [20] 802246 [21] 1369870 [22] 351898 [23] 1768930 [24] 846927 [25] 1447611 [26] 829060 [27] 664770 [28] 517598 [29] 1834612 ;
